NAME          
ROWS
 N  OBJ
 L  c1
 L  c2
COLUMNS
    MARKER    'MARKER'                 'INTORG'
    x[1]      c1        621
    x[1]      c2        964
    x[1]      OBJ       -398
    x[2]      c1        349
    x[2]      c2        134
    x[2]      OBJ       -776
    x[3]      c1        420
    x[3]      c2        899
    x[3]      OBJ       -625
    x[4]      c1        808
    x[4]      c2        588
    x[4]      OBJ       -992
    x[5]      c1        512
    x[5]      c2        155
    x[5]      OBJ       -397
    x[6]      c1        220
    x[6]      c2        712
    x[6]      OBJ       -531
    x[7]      c1        486
    x[7]      c2        791
    x[7]      OBJ       -175
    x[8]      c1        403
    x[8]      c2        842
    x[8]      OBJ       -626
    x[9]      c1        722
    x[9]      c2        420
    x[9]      OBJ       -947
    x[10]     c1        512
    x[10]     c2        806
    x[10]     OBJ       -956
    x[11]     c1        878
    x[11]     c2        104
    x[11]     OBJ       -940
    x[12]     c1        219
    x[12]     c2        377
    x[12]     OBJ       -877
    x[13]     c1        860
    x[13]     c2        620
    x[13]     OBJ       -303
    x[14]     c1        68
    x[14]     c2        35
    x[14]     OBJ       -97
    x[15]     c1        299
    x[15]     c2        352
    x[15]     OBJ       -651
RHS
    rhs       c1        3688
    rhs       c2        3900
RANGES
BOUNDS
 LO bounds    x[1]      0
 PL bounds    x[1]
 LO bounds    x[2]      0
 PL bounds    x[2]
 LO bounds    x[3]      0
 PL bounds    x[3]
 LO bounds    x[4]      0
 PL bounds    x[4]
 LO bounds    x[5]      0
 PL bounds    x[5]
 LO bounds    x[6]      0
 PL bounds    x[6]
 LO bounds    x[7]      0
 PL bounds    x[7]
 LO bounds    x[8]      0
 PL bounds    x[8]
 LO bounds    x[9]      0
 PL bounds    x[9]
 LO bounds    x[10]     0
 PL bounds    x[10]
 LO bounds    x[11]     0
 PL bounds    x[11]
 LO bounds    x[12]     0
 PL bounds    x[12]
 LO bounds    x[13]     0
 PL bounds    x[13]
 LO bounds    x[14]     0
 PL bounds    x[14]
 LO bounds    x[15]     0
 PL bounds    x[15]
ENDATA
